000 000 000 000 000 000 000 000 -99 -99 -99 -99 -99 000 000 -99 -99 -99 -99 -99 -99 -99 000 000 -99 -99 -99 -99 -99 -99 -99
000 000 000 000 000 000 000 000 -99 -99 -99 -99 -99 000 000 000 -99 -99 -99 -99 -99 -99 000 000 000 000 000 -99 -99 -99 -99
-99 000 000 000 000 000 000 000 000 -99 -99 -99 -99 -99 000 000 -99 -99 -99 000 000 -99 000 000 000 000 000 000 -99 -99 -99
000 000 000 000 000 000 000 000 000 -99 -99 -99 000 -99 -99 -99 -99 -99 -99 000 000 -99 000 000 000 000 000 000 -99 -99 -99
000 -99 000 000 000 000 000 000 000 -99 -99 -99 000 000 -99 -99 -99 000 -99 -99 000 000 000 000 000 000 000 000 000 -99 -99
000 000 000 000 000 -99 -99 000 000 -99 -99 000 000 000 -99 -99 000 000 -99 -99 000 000 000 000 000 -99 -99 000 -99 -99 -99
000 000 000 000 000 -99 -99 000 000 000 000 000 000 000 000 000 000 000 -99 000 000 000 000 000 000 -99 -99 -99 -99 -99 -99
000 000 000 000 000 -99 -99 000 000 000 000 -99 -99 000 000 000 000 000 000 -99 000 000 000 000 000 -99 -99 -99 -99 -99 -99
000 000 000 000 000 000 -99 000 000 000 000 000 -99 -99 -99 -99 000 000 000 000 000 -99 -99 000 000 -99 -99 -99 -99 -99 -99
000 000 000 000 000 -99 -99 -99 000 000 000 000 000 -99 -99 -99 000 000 000 000 000 000 -99 -99 000 -99 -99 -99 -99 000 -99
000 000 000 000 000 -99 -99 000 000 000 000 000 000 000 -99 -99 -99 000 000 000 000 000 -99 002 000 -99 -99 -99 -99 000 000
000 000 000 000 000 000 000 000 000 000 000 000 000 000 -99 -99 -99 000 000 000 000 000 006 002 000 -99 000 000 -99 000 000
000 000 000 000 000 000 000 000 000 000 000 000 000 000 -99 -99 -99 000 000 000 000 000 -99 006 001 000 000 -99 -99 -99 000
000 000 000 000 000 000 000 000 000 -99 000 000 000 -99 -99 -99 -99 000 000 000 000 000 -99 000 000 000 000 -99 -99 -99 000
000 -99 000 000 000 000 000 000 000 -99 -99 000 000 000 -99 -99 000 -99 -99 -99 -99 000 -99 000 000 000 000 -99 -99 -99 -99
000 -99 000 000 000 000 000 000 000 000 -99 -99 000 -99 -99 -99 000 -99 -99 -99 -99 000 -99 000 000 000 000 -99 -99 000 000
000 -99 000 000 -99 -99 000 000 000 000 -99 -99 -99 000 000 000 000 000 -99 -99 -99 000 000 000 000 000 000 000 -99 000 000
000 000 000 -99 -99 -99 -99 000 000 000 -99 -99 -99 000 000 000 000 000 -99 -99 -99 000 000 000 000 000 000 000 -99 000 000
000 000 000 000 -99 -99 -99 000 000 -99 -99 -99 -99 000 000 000 000 000 000 -99 -99 000 000 000 000 000 000 000 -99 000 000
000 000 000 000 -99 -99 -99 000 000 000 000 000 -99 000 000 000 000 000 000 -99 -99 000 000 -99 -99 000 000 -99 -99 000 -99
000 000 000 000 000 000 -99 000 000 000 000 000 -99 000 000 000 000 000 000 000 000 000 000 -99 -99 -99 -99 -99 -99 -99 -99
000 000 000 000 000 000 -99 000 000 000 000 000 -99 -99 -99 000 000 000 000 000 000 000 000 -99 -99 -99 -99 -99 -99 -99 -99
000 000 000 000 000 000 000 000 000 000 -99 -99 -99 -99 000 000 000 000 000 000 000 000 000 -99 -99 -99 -99 -99 -99 -99 -99
000 000 000 000 000 000 000 000 000 000 -99 -99 -99 -99 000 000 000 000 000 000 000 000 000 -99 -99 -99 -99 -99 -99 -99 -99
000 000 000 000 000 000 000 000 000 000 -99 -99 000 000 000 000 000 000 000 000 000 000 000 -99 -99 -99 -99 -99 -99 -99 -99
000 000 000 000 000 000 000 000 000 000 -99 -99 -99 000 000 000 000 000 000 000 000 000 -99 -99 -99 -99 -99 -99 -99 -99 -99
000 -99 000 000 000 000 000 000 000 000 000 -99 -99 000 000 000 000 000 000 000 000 000 000 -99 -99 -99 -99 -99 -99 -99 -99
000 000 000 000 000 000 000 000 000 000 -99 -99 -99 000 000 000 000 000 000 000 000 000 000 -99 -99 -99 -99 -99 -99 -99 000
000 000 000 000 000 000 -99 000 000 000 -99 -99 -99 000 000 000 000 -99 000 000 000 000 -99 -99 -99 -99 -99 -99 -99 -99 000
000 000 000 000 000 000 -99 000 000 000 000 -99 -99 000 000 000 000 -99 000 000 000 000 -99 -99 -99 -99 -99 -99 -99 -99 -99
000 000 000 000 000 000 000 000 000 000 -99 -99 -99 000 000 000 -99 000 000 000 000 -99 -99 -99 -99 -99 -99 -99 -99 -99 -99
000 000 000 000 000 000 000 000 000 -99 -99 -99 -99 000 -99 -99 -99 000 000 -99 -99 -99 -99 -99 000 -99 -99 -99 -99 -99 -99
000 000 000 000 000 000 000 000 000 000 -99 -99 -99 -99 000 -99 -99 000 000 -99 -99 -99 000 000 000 -99 -99 -99 000 -99 000
000 000 000 000 000 000 000 000 000 000 -99 -99 -99 -99 -99 -99 000 000 -99 -99 -99 000 000 000 000 000 000 000 000 -99 000
000 000 000 000 000 000 000 000 000 000 000 -99 000 -99 000 -99 000 000 000 000 000 000 000 000 000 000 000 000 000 -99 000
000 000 000 000 000 000 000 000 000 000 000 000 000 000 000 000 000 000 000 000 000 000 000 000 000 000 000 000 000 000 000
000 000 000 000 000 000 000 000 000 000 000 000 000 000 000 000 000 000 000 000 000 000 000 000 000 000 000 000 000 000 000
000 -99 000 000 000 000 000 000 000 -99 -99 000 000 000 000 000 000 000 000 -99 000 000 -99 000 000 000 000 000 000 000 000
-99 000 000 000 000 -99 000 000 000 -99 -99 000 000 000 000 000 000 000 -99 -99 000 000 000 000 000 000 000 000 -99 000 -99
000 000 000 000 000 -99 -99 -99 -99 -99 -99 000 000 000 000 000 000 000 -99 -99 -99 -99 000 000 000 000 000 000 -99 -99 -99
000 000 000 000 -99 -99 -99 -99 -99 -99 000 000 000 000 000 000 000 -99 000 -99 000 -99 000 000 000 -99 000 -99 -99 -99 -99
000 000 -99 000 -99 000 000 000 -99 -99 000 000 000 000 000 -99 -99 000 000 000 000 -99 000 000 000 -99 -99 -99 -99 -99 -99
000 000 -99 -99 -99 000 000 000 000 000 000 000 000 000 000 -99 000 000 000 000 000 000 -99 -99 000 -99 -99 -99 -99 -99 -99
000 -99 -99 -99 000 000 -99 -99 -99 -99 000 000 000 000 000 000 000 000 000 000 000 -99 -99 -99 000 -99 -99 -99 -99 -99 -99
-99 -99 -99 -99 -99 000 -99 -99 -99 000 000 000 000 000 000 000 000 000 000 000 000 -99 -99 000 000 -99 000 000 -99 -99 -99
-99 -99 -99 -99 -99 -99 -99 -99 -99 000 000 000 000 000 -99 -99 000 000 000 000 -99 -99 -99 000 -99 -99 000 000 -99 -99 -99
-99 -99 -99 -99 -99 -99 -99 -99 -99 -99 000 000 000 -99 -99 -99 -99 000 000 000 -99 -99 000 000 -99 -99 000 000 -99 -99 -99
-99 -99 -99 -99 -99 -99 -99 -99 -99 -99 000 000 000 -99 -99 -99 -99 000 000 -99 000 000 000 000 -99 -99 000 000 -99 -99 -99
-99 -99 -99 -99 -99 -99 -99 -99 -99 000 000 000 -99 -99 -99 -99 -99 000 000 -99 000 000 000 000 -99 000 000 000 -99 -99 -99
-99 -99 -99 -99 -99 -99 -99 -99 -99 -99 000 000 -99 -99 -99 -99 000 000 000 -99 000 000 000 000 -99 -99 000 000 000 -99 -99
-99 -99 -99 -99 -99 -99 -99 -99 -99 000 000 000 -99 -99 -99 -99 000 -99 -99 -99 000 000 000 -99 -99 -99 000 -99 -99 -99 -99
-99 -99 -99 -99 -99 -99 -99 -99 -99 -99 000 -99 -99 -99 -99 -99 -99 -99 -99 000 000 000 000 -99 -99 -99 -99 -99 -99 -99 -99
-99 -99 -99 -99 -99 -99 -99 -99 -99 -99 000 -99 -99 -99 -99 -99 -99 -99 000 -99 000 000 -99 -99 -99 -99 -99 -99 -99 -99 -99
-99 -99 -99 -99 -99 -99 -99 -99 -99 -99 -99 -99 -99 -99 -99 -99 -99 -99 -99 -99 -99 000 -99 -99 -99 -99 -99 -99 -99 -99 -99
-99 -99 -99 -99 -99 -99 -99 -99 -99 -99 -99 -99 -99 -99 -99 -99 -99 -99 -99 -99 -99 -99 -99 -99 -99 -99 -99 -99 -99 -99 -99
